data/lp_files/q3/71_9.lp
\ Model foo
\ LP format - for model browsing. Use MPS format to capture full model detail.
Minimize
  z
Subject To
 allocateEach[1]: x[1,1] + x[2,1] + x[3,1] + x[4,1] = 1
 allocateEach[2]: x[1,2] + x[2,2] + x[3,2] + x[4,2] = 1
 allocateEach[3]: x[1,3] + x[2,3] + x[3,3] + x[4,3] = 1
 allocateEach[4]: x[1,4] + x[2,4] + x[3,4] + x[4,4] = 1
 allocateEach[5]: x[1,5] + x[2,5] + x[3,5] + x[4,5] = 1
 allocateEach[6]: x[1,6] + x[2,6] + x[3,6] + x[4,6] = 1
 allocateEach[7]: x[1,7] + x[2,7] + x[3,7] + x[4,7] = 1
 allocateEach[8]: x[1,8] + x[2,8] + x[3,8] + x[4,8] = 1
 allocateEach[9]: x[1,9] + x[2,9] + x[3,9] + x[4,9] = 1
 allocateEach[10]: x[1,10] + x[2,10] + x[3,10] + x[4,10] = 1
 allocateEach[11]: x[1,11] + x[2,11] + x[3,11] + x[4,11] = 1
 allocateAllCash: cashProportion[1] + cashProportion[2] + cashProportion[3]
   + cashProportion[4] = 1
 findWorstP[1,2]: z + 0.1474665250988026 cashProportion[1]
   - 0.1474665250988026 cashProportion[2] + 0.1254792662065711 x[1,1]
   + 0.0754143809355276 x[1,2] + 0.0325753553943255 x[1,3]
   + 0.1026809414262962 x[1,4] + 0.0567598655105291 x[1,5]
   + 0.0498584321359051 x[1,6] + 0.0384002831357282 x[1,7]
   + 0.0652391907037102 x[1,8] + 0.0756945673332153 x[1,9]
   + 0.1102312275113549 x[1,10] + 0.1201999646080339 x[1,11]
   - 0.1254792662065711 x[2,1] - 0.0754143809355276 x[2,2]
   - 0.0325753553943255 x[2,3] - 0.1026809414262962 x[2,4]
   - 0.0567598655105291 x[2,5] - 0.0498584321359051 x[2,6]
   - 0.0384002831357282 x[2,7] - 0.0652391907037102 x[2,8]
   - 0.0756945673332153 x[2,9] - 0.1102312275113549 x[2,10]
   - 0.1201999646080339 x[2,11] >= 0
 findWorstP[1,3]: z + 0.1474665250988026 cashProportion[1]
   - 0.1474665250988026 cashProportion[3] + 0.1254792662065711 x[1,1]
   + 0.0754143809355276 x[1,2] + 0.0325753553943255 x[1,3]
   + 0.1026809414262962 x[1,4] + 0.0567598655105291 x[1,5]
   + 0.0498584321359051 x[1,6] + 0.0384002831357282 x[1,7]
   + 0.0652391907037102 x[1,8] + 0.0756945673332153 x[1,9]
   + 0.1102312275113549 x[1,10] + 0.1201999646080339 x[1,11]
   - 0.1254792662065711 x[3,1] - 0.0754143809355276 x[3,2]
   - 0.0325753553943255 x[3,3] - 0.1026809414262962 x[3,4]
   - 0.0567598655105291 x[3,5] - 0.0498584321359051 x[3,6]
   - 0.0384002831357282 x[3,7] - 0.0652391907037102 x[3,8]
   - 0.0756945673332153 x[3,9] - 0.1102312275113549 x[3,10]
   - 0.1201999646080339 x[3,11] >= 0
 findWorstP[1,4]: z + 0.1474665250988026 cashProportion[1]
   - 0.1474665250988026 cashProportion[4] + 0.1254792662065711 x[1,1]
   + 0.0754143809355276 x[1,2] + 0.0325753553943255 x[1,3]
   + 0.1026809414262962 x[1,4] + 0.0567598655105291 x[1,5]
   + 0.0498584321359051 x[1,6] + 0.0384002831357282 x[1,7]
   + 0.0652391907037102 x[1,8] + 0.0756945673332153 x[1,9]
   + 0.1102312275113549 x[1,10] + 0.1201999646080339 x[1,11]
   - 0.1254792662065711 x[4,1] - 0.0754143809355276 x[4,2]
   - 0.0325753553943255 x[4,3] - 0.1026809414262962 x[4,4]
   - 0.0567598655105291 x[4,5] - 0.0498584321359051 x[4,6]
   - 0.0384002831357282 x[4,7] - 0.0652391907037102 x[4,8]
   - 0.0756945673332153 x[4,9] - 0.1102312275113549 x[4,10]
   - 0.1201999646080339 x[4,11] >= 0
 findWorstP[2,1]: z - 0.1728279843072191 cashProportion[1]
   + 0.1728279843072191 cashProportion[2] - 0.0673856310813847 x[1,1]
   - 0.0460413750194432 x[1,2] - 0.1061336651630632 x[1,3]
   - 0.0209986 x[1,4] - 0.0674029138798154 x[1,5]
   - 0.0651734328822523 x[1,6] - 0.0878311816249287 x[1,7]
   - 0.0838561379858627 x[1,8] - 0.0222256787819084 x[1,9]
   - 0.1594510983218403 x[1,10] - 0.1006723008589551 x[1,11]
   + 0.0673856310813847 x[2,1] + 0.0460413750194432 x[2,2]
   + 0.1061336651630632 x[2,3] + 0.0209986 x[2,4]
   + 0.0674029138798154 x[2,5] + 0.0651734328822523 x[2,6]
   + 0.0878311816249287 x[2,7] + 0.0838561379858627 x[2,8]
   + 0.0222256787819084 x[2,9] + 0.1594510983218403 x[2,10]
   + 0.1006723008589551 x[2,11] >= 0
 findWorstP[2,3]: z + 0.1728279843072191 cashProportion[2]
   - 0.1728279843072191 cashProportion[3] + 0.0673856310813847 x[2,1]
   + 0.0460413750194432 x[2,2] + 0.1061336651630632 x[2,3]
   + 0.0209986 x[2,4] + 0.0674029138798154 x[2,5]
   + 0.0651734328822523 x[2,6] + 0.0878311816249287 x[2,7]
   + 0.0838561379858627 x[2,8] + 0.0222256787819084 x[2,9]
   + 0.1594510983218403 x[2,10] + 0.1006723008589551 x[2,11]
   - 0.0673856310813847 x[3,1] - 0.0460413750194432 x[3,2]
   - 0.1061336651630632 x[3,3] - 0.0209986 x[3,4]
   - 0.0674029138798154 x[3,5] - 0.0651734328822523 x[3,6]
   - 0.0878311816249287 x[3,7] - 0.0838561379858627 x[3,8]
   - 0.0222256787819084 x[3,9] - 0.1594510983218403 x[3,10]
   - 0.1006723008589551 x[3,11] >= 0
 findWorstP[2,4]: z + 0.1728279843072191 cashProportion[2]
   - 0.1728279843072191 cashProportion[4] + 0.0673856310813847 x[2,1]
   + 0.0460413750194432 x[2,2] + 0.1061336651630632 x[2,3]
   + 0.0209986 x[2,4] + 0.0674029138798154 x[2,5]
   + 0.0651734328822523 x[2,6] + 0.0878311816249287 x[2,7]
   + 0.0838561379858627 x[2,8] + 0.0222256787819084 x[2,9]
   + 0.1594510983218403 x[2,10] + 0.1006723008589551 x[2,11]
   - 0.0673856310813847 x[4,1] - 0.0460413750194432 x[4,2]
   - 0.1061336651630632 x[4,3] - 0.0209986 x[4,4]
   - 0.0674029138798154 x[4,5] - 0.0651734328822523 x[4,6]
   - 0.0878311816249287 x[4,7] - 0.0838561379858627 x[4,8]
   - 0.0222256787819084 x[4,9] - 0.1594510983218403 x[4,10]
   - 0.1006723008589551 x[4,11] >= 0
 findWorstP[3,1]: z - 0.1604235180877517 cashProportion[1]
   + 0.1604235180877517 cashProportion[3] - 0.0842223469960696 x[1,1]
   - 0.1571508783187615 x[1,2] - 0.0770514157375471 x[1,3]
   - 0.1239913371300233 x[1,4] - 0.1248576241276971 x[1,5]
   - 0.0704740514959493 x[1,6] - 0.0492179353493222 x[1,7]
   - 0.0756717734819925 x[1,8] - 0.0233576642335766 x[1,9]
   - 0.0163471564931419 x[1,10] - 0.0372342985481672 x[1,11]
   + 0.0842223469960696 x[3,1] + 0.1571508783187615 x[3,2]
   + 0.0770514157375471 x[3,3] + 0.1239913371300233 x[3,4]
   + 0.1248576241276971 x[3,5] + 0.0704740514959493 x[3,6]
   + 0.0492179353493222 x[3,7] + 0.0756717734819925 x[3,8]
   + 0.0233576642335766 x[3,9] + 0.0163471564931419 x[3,10]
   + 0.0372342985481672 x[3,11] >= 0
 findWorstP[3,2]: z - 0.1604235180877517 cashProportion[2]
   + 0.1604235180877517 cashProportion[3] - 0.0842223469960696 x[2,1]
   - 0.1571508783187615 x[2,2] - 0.0770514157375471 x[2,3]
   - 0.1239913371300233 x[2,4] - 0.1248576241276971 x[2,5]
   - 0.0704740514959493 x[2,6] - 0.0492179353493222 x[2,7]
   - 0.0756717734819925 x[2,8] - 0.0233576642335766 x[2,9]
   - 0.0163471564931419 x[2,10] - 0.0372342985481672 x[2,11]
   + 0.0842223469960696 x[3,1] + 0.1571508783187615 x[3,2]
   + 0.0770514157375471 x[3,3] + 0.1239913371300233 x[3,4]
   + 0.1248576241276971 x[3,5] + 0.0704740514959493 x[3,6]
   + 0.0492179353493222 x[3,7] + 0.0756717734819925 x[3,8]
   + 0.0233576642335766 x[3,9] + 0.0163471564931419 x[3,10]
   + 0.0372342985481672 x[3,11] >= 0
 findWorstP[3,4]: z + 0.1604235180877517 cashProportion[3]
   - 0.1604235180877517 cashProportion[4] + 0.0842223469960696 x[3,1]
   + 0.1571508783187615 x[3,2] + 0.0770514157375471 x[3,3]
   + 0.1239913371300233 x[3,4] + 0.1248576241276971 x[3,5]
   + 0.0704740514959493 x[3,6] + 0.0492179353493222 x[3,7]
   + 0.0756717734819925 x[3,8] + 0.0233576642335766 x[3,9]
   + 0.0163471564931419 x[3,10] + 0.0372342985481672 x[3,11]
   - 0.0842223469960696 x[4,1] - 0.1571508783187615 x[4,2]
   - 0.0770514157375471 x[4,3] - 0.1239913371300233 x[4,4]
   - 0.1248576241276971 x[4,5] - 0.0704740514959493 x[4,6]
   - 0.0492179353493222 x[4,7] - 0.0756717734819925 x[4,8]
   - 0.0233576642335766 x[4,9] - 0.0163471564931419 x[4,10]
   - 0.0372342985481672 x[4,11] >= 0
 findWorstP[4,1]: z - 0.2084636230977695 cashProportion[1]
   + 0.2084636230977695 cashProportion[4] - 0.0588492808005003 x[1,1]
   - 0.0411298728371899 x[1,2] - 0.1817594329789451 x[1,3]
   - 0.114675839066083 x[1,4] - 0.00114655 x[1,5]
   - 0.1595163643944132 x[1,6] - 0.0423806545757765 x[1,7]
   - 0.0340004169272462 x[1,8] - 0.0519491348759641 x[1,9]
   - 0.045048988951428 x[1,10] - 0.0610798415676464 x[1,11]
   + 0.0588492808005003 x[4,1] + 0.0411298728371899 x[4,2]
   + 0.1817594329789451 x[4,3] + 0.114675839066083 x[4,4]
   + 0.00114655 x[4,5] + 0.1595163643944132 x[4,6]
   + 0.0423806545757765 x[4,7] + 0.0340004169272462 x[4,8]
   + 0.0519491348759641 x[4,9] + 0.045048988951428 x[4,10]
   + 0.0610798415676464 x[4,11] >= 0
 findWorstP[4,2]: z - 0.2084636230977695 cashProportion[2]
   + 0.2084636230977695 cashProportion[4] - 0.0588492808005003 x[2,1]
   - 0.0411298728371899 x[2,2] - 0.1817594329789451 x[2,3]
   - 0.114675839066083 x[2,4] - 0.00114655 x[2,5]
   - 0.1595163643944132 x[2,6] - 0.0423806545757765 x[2,7]
   - 0.0340004169272462 x[2,8] - 0.0519491348759641 x[2,9]
   - 0.045048988951428 x[2,10] - 0.0610798415676464 x[2,11]
   + 0.0588492808005003 x[4,1] + 0.0411298728371899 x[4,2]
   + 0.1817594329789451 x[4,3] + 0.114675839066083 x[4,4]
   + 0.00114655 x[4,5] + 0.1595163643944132 x[4,6]
   + 0.0423806545757765 x[4,7] + 0.0340004169272462 x[4,8]
   + 0.0519491348759641 x[4,9] + 0.045048988951428 x[4,10]
   + 0.0610798415676464 x[4,11] >= 0
 findWorstP[4,3]: z - 0.2084636230977695 cashProportion[3]
   + 0.2084636230977695 cashProportion[4] - 0.0588492808005003 x[3,1]
   - 0.0411298728371899 x[3,2] - 0.1817594329789451 x[3,3]
   - 0.114675839066083 x[3,4] - 0.00114655 x[3,5]
   - 0.1595163643944132 x[3,6] - 0.0423806545757765 x[3,7]
   - 0.0340004169272462 x[3,8] - 0.0519491348759641 x[3,9]
   - 0.045048988951428 x[3,10] - 0.0610798415676464 x[3,11]
   + 0.0588492808005003 x[4,1] + 0.0411298728371899 x[4,2]
   + 0.1817594329789451 x[4,3] + 0.114675839066083 x[4,4]
   + 0.00114655 x[4,5] + 0.1595163643944132 x[4,6]
   + 0.0423806545757765 x[4,7] + 0.0340004169272462 x[4,8]
   + 0.0519491348759641 x[4,9] + 0.045048988951428 x[4,10]
   + 0.0610798415676464 x[4,11] >= 0
Bounds
 z <= 1
 -infinity <= cashProportion[1] <= 1
 -infinity <= cashProportion[2] <= 1
 -infinity <= cashProportion[3] <= 1
 -infinity <= cashProportion[4] <= 1
Binaries
 x[1,1] x[1,2] x[1,3] x[1,4] x[1,5] x[1,6] x[1,7] x[1,8] x[1,9] x[1,10]
 x[1,11] x[2,1] x[2,2] x[2,3] x[2,4] x[2,5] x[2,6] x[2,7] x[2,8] x[2,9]
 x[2,10] x[2,11] x[3,1] x[3,2] x[3,3] x[3,4] x[3,5] x[3,6] x[3,7] x[3,8]
 x[3,9] x[3,10] x[3,11] x[4,1] x[4,2] x[4,3] x[4,4] x[4,5] x[4,6] x[4,7]
 x[4,8] x[4,9] x[4,10] x[4,11]
End
