data/mps_files/pEFS/71_9.mps
NAME foo
ROWS
 N  OBJ
 E  allocateEach[1]
 E  allocateEach[2]
 E  allocateEach[3]
 E  allocateEach[4]
 E  allocateEach[5]
 E  allocateEach[6]
 E  allocateEach[7]
 E  allocateEach[8]
 E  allocateEach[9]
 E  allocateEach[10]
 E  allocateEach[11]
 E  allocateAllCash
 G  findWorstP[1,2]
 G  findWorstP[1,3]
 G  findWorstP[1,4]
 G  findWorstP[2,1]
 G  findWorstP[2,3]
 G  findWorstP[2,4]
 G  findWorstP[3,1]
 G  findWorstP[3,2]
 G  findWorstP[3,4]
 G  findWorstP[4,1]
 G  findWorstP[4,2]
 G  findWorstP[4,3]
COLUMNS
    z         OBJ       1
    z         findWorstP[1,2]  1
    z         findWorstP[1,3]  1
    z         findWorstP[1,4]  1
    z         findWorstP[2,1]  1
    z         findWorstP[2,3]  1
    z         findWorstP[2,4]  1
    z         findWorstP[3,1]  1
    z         findWorstP[3,2]  1
    z         findWorstP[3,4]  1
    z         findWorstP[4,1]  1
    z         findWorstP[4,2]  1
    z         findWorstP[4,3]  1
    cashProportion[1]  allocateAllCash  1
    cashProportion[1]  findWorstP[1,2]  1.4746652509880256e-01
    cashProportion[1]  findWorstP[1,3]  1.4746652509880256e-01
    cashProportion[1]  findWorstP[1,4]  1.4746652509880256e-01
    cashProportion[1]  findWorstP[2,1]  -1.7282798430721907e-01
    cashProportion[1]  findWorstP[3,1]  -1.6042351808775168e-01
    cashProportion[1]  findWorstP[4,1]  -2.0846362309776947e-01
    cashProportion[2]  allocateAllCash  1
    cashProportion[2]  findWorstP[1,2]  -1.4746652509880256e-01
    cashProportion[2]  findWorstP[2,1]  1.7282798430721907e-01
    cashProportion[2]  findWorstP[2,3]  1.7282798430721907e-01
    cashProportion[2]  findWorstP[2,4]  1.7282798430721907e-01
    cashProportion[2]  findWorstP[3,2]  -1.6042351808775168e-01
    cashProportion[2]  findWorstP[4,2]  -2.0846362309776947e-01
    cashProportion[3]  allocateAllCash  1
    cashProportion[3]  findWorstP[1,3]  -1.4746652509880256e-01
    cashProportion[3]  findWorstP[2,3]  -1.7282798430721907e-01
    cashProportion[3]  findWorstP[3,1]  1.6042351808775168e-01
    cashProportion[3]  findWorstP[3,2]  1.6042351808775168e-01
    cashProportion[3]  findWorstP[3,4]  1.6042351808775168e-01
    cashProportion[3]  findWorstP[4,3]  -2.0846362309776947e-01
    cashProportion[4]  allocateAllCash  1
    cashProportion[4]  findWorstP[1,4]  -1.4746652509880256e-01
    cashProportion[4]  findWorstP[2,4]  -1.7282798430721907e-01
    cashProportion[4]  findWorstP[3,4]  -1.6042351808775168e-01
    cashProportion[4]  findWorstP[4,1]  2.0846362309776947e-01
    cashProportion[4]  findWorstP[4,2]  2.0846362309776947e-01
    cashProportion[4]  findWorstP[4,3]  2.0846362309776947e-01
    MARKER    'MARKER'                 'INTORG'
    x[1,1]    allocateEach[1]  1
    x[1,1]    findWorstP[1,2]  1.2547926620657107e-01
    x[1,1]    findWorstP[1,3]  1.2547926620657107e-01
    x[1,1]    findWorstP[1,4]  1.2547926620657107e-01
    x[1,1]    findWorstP[2,1]  -0.0673856310813847
    x[1,1]    findWorstP[3,1]  -8.4222346996069619e-02
    x[1,1]    findWorstP[4,1]  -5.8849280800500309e-02
    x[1,2]    allocateEach[2]  1
    x[1,2]    findWorstP[1,2]  7.5414380935527617e-02
    x[1,2]    findWorstP[1,3]  7.5414380935527617e-02
    x[1,2]    findWorstP[1,4]  7.5414380935527617e-02
    x[1,2]    findWorstP[2,1]  -4.6041375019443158e-02
    x[1,2]    findWorstP[3,1]  -1.5715087831876151e-01
    x[1,2]    findWorstP[4,1]  -4.1129872837189906e-02
    x[1,3]    allocateEach[3]  1
    x[1,3]    findWorstP[1,2]  3.2575355394325482e-02
    x[1,3]    findWorstP[1,3]  3.2575355394325482e-02
    x[1,3]    findWorstP[1,4]  3.2575355394325482e-02
    x[1,3]    findWorstP[2,1]  -1.0613366516306322e-01
    x[1,3]    findWorstP[3,1]  -7.7051415737547119e-02
    x[1,3]    findWorstP[4,1]  -1.8175943297894515e-01
    x[1,4]    allocateEach[4]  1
    x[1,4]    findWorstP[1,2]  1.0268094142629620e-01
    x[1,4]    findWorstP[1,3]  1.0268094142629620e-01
    x[1,4]    findWorstP[1,4]  1.0268094142629620e-01
    x[1,4]    findWorstP[2,1]  -2.0998600093327113e-02
    x[1,4]    findWorstP[3,1]  -1.2399133713002326e-01
    x[1,4]    findWorstP[4,1]  -1.1467583906608296e-01
    x[1,5]    allocateEach[5]  1
    x[1,5]    findWorstP[1,2]  0.0567598655105291
    x[1,5]    findWorstP[1,3]  0.0567598655105291
    x[1,5]    findWorstP[1,4]  0.0567598655105291
    x[1,5]    findWorstP[2,1]  -6.7402913879815424e-02
    x[1,5]    findWorstP[3,1]  -1.2485762412769712e-01
    x[1,5]    findWorstP[4,1]  -1.1465499270377317e-03
    x[1,6]    allocateEach[6]  1
    x[1,6]    findWorstP[1,2]  4.9858432135905142e-02
    x[1,6]    findWorstP[1,3]  4.9858432135905142e-02
    x[1,6]    findWorstP[1,4]  4.9858432135905142e-02
    x[1,6]    findWorstP[2,1]  -0.0651734328822523
    x[1,6]    findWorstP[3,1]  -0.0704740514959493
    x[1,6]    findWorstP[4,1]  -1.5951636439441316e-01
    x[1,7]    allocateEach[7]  1
    x[1,7]    findWorstP[1,2]  3.8400283135728186e-02
    x[1,7]    findWorstP[1,3]  3.8400283135728186e-02
    x[1,7]    findWorstP[1,4]  3.8400283135728186e-02
    x[1,7]    findWorstP[2,1]  -8.7831181624928714e-02
    x[1,7]    findWorstP[3,1]  -4.9217935349322207e-02
    x[1,7]    findWorstP[4,1]  -4.2380654575776527e-02
    x[1,8]    allocateEach[8]  1
    x[1,8]    findWorstP[1,2]  6.5239190703710245e-02
    x[1,8]    findWorstP[1,3]  6.5239190703710245e-02
    x[1,8]    findWorstP[1,4]  6.5239190703710245e-02
    x[1,8]    findWorstP[2,1]  -8.3856137985862680e-02
    x[1,8]    findWorstP[3,1]  -7.5671773481992458e-02
    x[1,8]    findWorstP[4,1]  -3.4000416927246188e-02
    x[1,9]    allocateEach[9]  1
    x[1,9]    findWorstP[1,2]  7.5694567333215335e-02
    x[1,9]    findWorstP[1,3]  7.5694567333215335e-02
    x[1,9]    findWorstP[1,4]  7.5694567333215335e-02
    x[1,9]    findWorstP[2,1]  -2.2225678781908367e-02
    x[1,9]    findWorstP[3,1]  -2.3357664233576641e-02
    x[1,9]    findWorstP[4,1]  -5.1949134875964142e-02
    x[1,10]   allocateEach[10]  1
    x[1,10]   findWorstP[1,2]  1.1023122751135490e-01
    x[1,10]   findWorstP[1,3]  1.1023122751135490e-01
    x[1,10]   findWorstP[1,4]  1.1023122751135490e-01
    x[1,10]   findWorstP[2,1]  -1.5945109832184029e-01
    x[1,10]   findWorstP[3,1]  -1.6347156493141893e-02
    x[1,10]   findWorstP[4,1]  -4.5048988951427969e-02
    x[1,11]   allocateEach[11]  1
    x[1,11]   findWorstP[1,2]  1.2019996460803395e-01
    x[1,11]   findWorstP[1,3]  1.2019996460803395e-01
    x[1,11]   findWorstP[1,4]  1.2019996460803395e-01
    x[1,11]   findWorstP[2,1]  -1.0067230085895509e-01
    x[1,11]   findWorstP[3,1]  -3.7234298548167157e-02
    x[1,11]   findWorstP[4,1]  -6.1079841567646433e-02
    x[2,1]    allocateEach[1]  1
    x[2,1]    findWorstP[1,2]  -1.2547926620657107e-01
    x[2,1]    findWorstP[2,1]  0.0673856310813847
    x[2,1]    findWorstP[2,3]  0.0673856310813847
    x[2,1]    findWorstP[2,4]  0.0673856310813847
    x[2,1]    findWorstP[3,2]  -8.4222346996069619e-02
    x[2,1]    findWorstP[4,2]  -5.8849280800500309e-02
    x[2,2]    allocateEach[2]  1
    x[2,2]    findWorstP[1,2]  -7.5414380935527617e-02
    x[2,2]    findWorstP[2,1]  4.6041375019443158e-02
    x[2,2]    findWorstP[2,3]  4.6041375019443158e-02
    x[2,2]    findWorstP[2,4]  4.6041375019443158e-02
    x[2,2]    findWorstP[3,2]  -1.5715087831876151e-01
    x[2,2]    findWorstP[4,2]  -4.1129872837189906e-02
    x[2,3]    allocateEach[3]  1
    x[2,3]    findWorstP[1,2]  -3.2575355394325482e-02
    x[2,3]    findWorstP[2,1]  1.0613366516306322e-01
    x[2,3]    findWorstP[2,3]  1.0613366516306322e-01
    x[2,3]    findWorstP[2,4]  1.0613366516306322e-01
    x[2,3]    findWorstP[3,2]  -7.7051415737547119e-02
    x[2,3]    findWorstP[4,2]  -1.8175943297894515e-01
    x[2,4]    allocateEach[4]  1
    x[2,4]    findWorstP[1,2]  -1.0268094142629620e-01
    x[2,4]    findWorstP[2,1]  2.0998600093327113e-02
    x[2,4]    findWorstP[2,3]  2.0998600093327113e-02
    x[2,4]    findWorstP[2,4]  2.0998600093327113e-02
    x[2,4]    findWorstP[3,2]  -1.2399133713002326e-01
    x[2,4]    findWorstP[4,2]  -1.1467583906608296e-01
    x[2,5]    allocateEach[5]  1
    x[2,5]    findWorstP[1,2]  -0.0567598655105291
    x[2,5]    findWorstP[2,1]  6.7402913879815424e-02
    x[2,5]    findWorstP[2,3]  6.7402913879815424e-02
    x[2,5]    findWorstP[2,4]  6.7402913879815424e-02
    x[2,5]    findWorstP[3,2]  -1.2485762412769712e-01
    x[2,5]    findWorstP[4,2]  -1.1465499270377317e-03
    x[2,6]    allocateEach[6]  1
    x[2,6]    findWorstP[1,2]  -4.9858432135905142e-02
    x[2,6]    findWorstP[2,1]  0.0651734328822523
    x[2,6]    findWorstP[2,3]  0.0651734328822523
    x[2,6]    findWorstP[2,4]  0.0651734328822523
    x[2,6]    findWorstP[3,2]  -0.0704740514959493
    x[2,6]    findWorstP[4,2]  -1.5951636439441316e-01
    x[2,7]    allocateEach[7]  1
    x[2,7]    findWorstP[1,2]  -3.8400283135728186e-02
    x[2,7]    findWorstP[2,1]  8.7831181624928714e-02
    x[2,7]    findWorstP[2,3]  8.7831181624928714e-02
    x[2,7]    findWorstP[2,4]  8.7831181624928714e-02
    x[2,7]    findWorstP[3,2]  -4.9217935349322207e-02
    x[2,7]    findWorstP[4,2]  -4.2380654575776527e-02
    x[2,8]    allocateEach[8]  1
    x[2,8]    findWorstP[1,2]  -6.5239190703710245e-02
    x[2,8]    findWorstP[2,1]  8.3856137985862680e-02
    x[2,8]    findWorstP[2,3]  8.3856137985862680e-02
    x[2,8]    findWorstP[2,4]  8.3856137985862680e-02
    x[2,8]    findWorstP[3,2]  -7.5671773481992458e-02
    x[2,8]    findWorstP[4,2]  -3.4000416927246188e-02
    x[2,9]    allocateEach[9]  1
    x[2,9]    findWorstP[1,2]  -7.5694567333215335e-02
    x[2,9]    findWorstP[2,1]  2.2225678781908367e-02
    x[2,9]    findWorstP[2,3]  2.2225678781908367e-02
    x[2,9]    findWorstP[2,4]  2.2225678781908367e-02
    x[2,9]    findWorstP[3,2]  -2.3357664233576641e-02
    x[2,9]    findWorstP[4,2]  -5.1949134875964142e-02
    x[2,10]   allocateEach[10]  1
    x[2,10]   findWorstP[1,2]  -1.1023122751135490e-01
    x[2,10]   findWorstP[2,1]  1.5945109832184029e-01
    x[2,10]   findWorstP[2,3]  1.5945109832184029e-01
    x[2,10]   findWorstP[2,4]  1.5945109832184029e-01
    x[2,10]   findWorstP[3,2]  -1.6347156493141893e-02
    x[2,10]   findWorstP[4,2]  -4.5048988951427969e-02
    x[2,11]   allocateEach[11]  1
    x[2,11]   findWorstP[1,2]  -1.2019996460803395e-01
    x[2,11]   findWorstP[2,1]  1.0067230085895509e-01
    x[2,11]   findWorstP[2,3]  1.0067230085895509e-01
    x[2,11]   findWorstP[2,4]  1.0067230085895509e-01
    x[2,11]   findWorstP[3,2]  -3.7234298548167157e-02
    x[2,11]   findWorstP[4,2]  -6.1079841567646433e-02
    x[3,1]    allocateEach[1]  1
    x[3,1]    findWorstP[1,3]  -1.2547926620657107e-01
    x[3,1]    findWorstP[2,3]  -0.0673856310813847
    x[3,1]    findWorstP[3,1]  8.4222346996069619e-02
    x[3,1]    findWorstP[3,2]  8.4222346996069619e-02
    x[3,1]    findWorstP[3,4]  8.4222346996069619e-02
    x[3,1]    findWorstP[4,3]  -5.8849280800500309e-02
    x[3,2]    allocateEach[2]  1
    x[3,2]    findWorstP[1,3]  -7.5414380935527617e-02
    x[3,2]    findWorstP[2,3]  -4.6041375019443158e-02
    x[3,2]    findWorstP[3,1]  1.5715087831876151e-01
    x[3,2]    findWorstP[3,2]  1.5715087831876151e-01
    x[3,2]    findWorstP[3,4]  1.5715087831876151e-01
    x[3,2]    findWorstP[4,3]  -4.1129872837189906e-02
    x[3,3]    allocateEach[3]  1
    x[3,3]    findWorstP[1,3]  -3.2575355394325482e-02
    x[3,3]    findWorstP[2,3]  -1.0613366516306322e-01
    x[3,3]    findWorstP[3,1]  7.7051415737547119e-02
    x[3,3]    findWorstP[3,2]  7.7051415737547119e-02
    x[3,3]    findWorstP[3,4]  7.7051415737547119e-02
    x[3,3]    findWorstP[4,3]  -1.8175943297894515e-01
    x[3,4]    allocateEach[4]  1
    x[3,4]    findWorstP[1,3]  -1.0268094142629620e-01
    x[3,4]    findWorstP[2,3]  -2.0998600093327113e-02
    x[3,4]    findWorstP[3,1]  1.2399133713002326e-01
    x[3,4]    findWorstP[3,2]  1.2399133713002326e-01
    x[3,4]    findWorstP[3,4]  1.2399133713002326e-01
    x[3,4]    findWorstP[4,3]  -1.1467583906608296e-01
    x[3,5]    allocateEach[5]  1
    x[3,5]    findWorstP[1,3]  -0.0567598655105291
    x[3,5]    findWorstP[2,3]  -6.7402913879815424e-02
    x[3,5]    findWorstP[3,1]  1.2485762412769712e-01
    x[3,5]    findWorstP[3,2]  1.2485762412769712e-01
    x[3,5]    findWorstP[3,4]  1.2485762412769712e-01
    x[3,5]    findWorstP[4,3]  -1.1465499270377317e-03
    x[3,6]    allocateEach[6]  1
    x[3,6]    findWorstP[1,3]  -4.9858432135905142e-02
    x[3,6]    findWorstP[2,3]  -0.0651734328822523
    x[3,6]    findWorstP[3,1]  0.0704740514959493
    x[3,6]    findWorstP[3,2]  0.0704740514959493
    x[3,6]    findWorstP[3,4]  0.0704740514959493
    x[3,6]    findWorstP[4,3]  -1.5951636439441316e-01
    x[3,7]    allocateEach[7]  1
    x[3,7]    findWorstP[1,3]  -3.8400283135728186e-02
    x[3,7]    findWorstP[2,3]  -8.7831181624928714e-02
    x[3,7]    findWorstP[3,1]  4.9217935349322207e-02
    x[3,7]    findWorstP[3,2]  4.9217935349322207e-02
    x[3,7]    findWorstP[3,4]  4.9217935349322207e-02
    x[3,7]    findWorstP[4,3]  -4.2380654575776527e-02
    x[3,8]    allocateEach[8]  1
    x[3,8]    findWorstP[1,3]  -6.5239190703710245e-02
    x[3,8]    findWorstP[2,3]  -8.3856137985862680e-02
    x[3,8]    findWorstP[3,1]  7.5671773481992458e-02
    x[3,8]    findWorstP[3,2]  7.5671773481992458e-02
    x[3,8]    findWorstP[3,4]  7.5671773481992458e-02
    x[3,8]    findWorstP[4,3]  -3.4000416927246188e-02
    x[3,9]    allocateEach[9]  1
    x[3,9]    findWorstP[1,3]  -7.5694567333215335e-02
    x[3,9]    findWorstP[2,3]  -2.2225678781908367e-02
    x[3,9]    findWorstP[3,1]  2.3357664233576641e-02
    x[3,9]    findWorstP[3,2]  2.3357664233576641e-02
    x[3,9]    findWorstP[3,4]  2.3357664233576641e-02
    x[3,9]    findWorstP[4,3]  -5.1949134875964142e-02
    x[3,10]   allocateEach[10]  1
    x[3,10]   findWorstP[1,3]  -1.1023122751135490e-01
    x[3,10]   findWorstP[2,3]  -1.5945109832184029e-01
    x[3,10]   findWorstP[3,1]  1.6347156493141893e-02
    x[3,10]   findWorstP[3,2]  1.6347156493141893e-02
    x[3,10]   findWorstP[3,4]  1.6347156493141893e-02
    x[3,10]   findWorstP[4,3]  -4.5048988951427969e-02
    x[3,11]   allocateEach[11]  1
    x[3,11]   findWorstP[1,3]  -1.2019996460803395e-01
    x[3,11]   findWorstP[2,3]  -1.0067230085895509e-01
    x[3,11]   findWorstP[3,1]  3.7234298548167157e-02
    x[3,11]   findWorstP[3,2]  3.7234298548167157e-02
    x[3,11]   findWorstP[3,4]  3.7234298548167157e-02
    x[3,11]   findWorstP[4,3]  -6.1079841567646433e-02
    x[4,1]    allocateEach[1]  1
    x[4,1]    findWorstP[1,4]  -1.2547926620657107e-01
    x[4,1]    findWorstP[2,4]  -0.0673856310813847
    x[4,1]    findWorstP[3,4]  -8.4222346996069619e-02
    x[4,1]    findWorstP[4,1]  5.8849280800500309e-02
    x[4,1]    findWorstP[4,2]  5.8849280800500309e-02
    x[4,1]    findWorstP[4,3]  5.8849280800500309e-02
    x[4,2]    allocateEach[2]  1
    x[4,2]    findWorstP[1,4]  -7.5414380935527617e-02
    x[4,2]    findWorstP[2,4]  -4.6041375019443158e-02
    x[4,2]    findWorstP[3,4]  -1.5715087831876151e-01
    x[4,2]    findWorstP[4,1]  4.1129872837189906e-02
    x[4,2]    findWorstP[4,2]  4.1129872837189906e-02
    x[4,2]    findWorstP[4,3]  4.1129872837189906e-02
    x[4,3]    allocateEach[3]  1
    x[4,3]    findWorstP[1,4]  -3.2575355394325482e-02
    x[4,3]    findWorstP[2,4]  -1.0613366516306322e-01
    x[4,3]    findWorstP[3,4]  -7.7051415737547119e-02
    x[4,3]    findWorstP[4,1]  1.8175943297894515e-01
    x[4,3]    findWorstP[4,2]  1.8175943297894515e-01
    x[4,3]    findWorstP[4,3]  1.8175943297894515e-01
    x[4,4]    allocateEach[4]  1
    x[4,4]    findWorstP[1,4]  -1.0268094142629620e-01
    x[4,4]    findWorstP[2,4]  -2.0998600093327113e-02
    x[4,4]    findWorstP[3,4]  -1.2399133713002326e-01
    x[4,4]    findWorstP[4,1]  1.1467583906608296e-01
    x[4,4]    findWorstP[4,2]  1.1467583906608296e-01
    x[4,4]    findWorstP[4,3]  1.1467583906608296e-01
    x[4,5]    allocateEach[5]  1
    x[4,5]    findWorstP[1,4]  -0.0567598655105291
    x[4,5]    findWorstP[2,4]  -6.7402913879815424e-02
    x[4,5]    findWorstP[3,4]  -1.2485762412769712e-01
    x[4,5]    findWorstP[4,1]  1.1465499270377317e-03
    x[4,5]    findWorstP[4,2]  1.1465499270377317e-03
    x[4,5]    findWorstP[4,3]  1.1465499270377317e-03
    x[4,6]    allocateEach[6]  1
    x[4,6]    findWorstP[1,4]  -4.9858432135905142e-02
    x[4,6]    findWorstP[2,4]  -0.0651734328822523
    x[4,6]    findWorstP[3,4]  -0.0704740514959493
    x[4,6]    findWorstP[4,1]  1.5951636439441316e-01
    x[4,6]    findWorstP[4,2]  1.5951636439441316e-01
    x[4,6]    findWorstP[4,3]  1.5951636439441316e-01
    x[4,7]    allocateEach[7]  1
    x[4,7]    findWorstP[1,4]  -3.8400283135728186e-02
    x[4,7]    findWorstP[2,4]  -8.7831181624928714e-02
    x[4,7]    findWorstP[3,4]  -4.9217935349322207e-02
    x[4,7]    findWorstP[4,1]  4.2380654575776527e-02
    x[4,7]    findWorstP[4,2]  4.2380654575776527e-02
    x[4,7]    findWorstP[4,3]  4.2380654575776527e-02
    x[4,8]    allocateEach[8]  1
    x[4,8]    findWorstP[1,4]  -6.5239190703710245e-02
    x[4,8]    findWorstP[2,4]  -8.3856137985862680e-02
    x[4,8]    findWorstP[3,4]  -7.5671773481992458e-02
    x[4,8]    findWorstP[4,1]  3.4000416927246188e-02
    x[4,8]    findWorstP[4,2]  3.4000416927246188e-02
    x[4,8]    findWorstP[4,3]  3.4000416927246188e-02
    x[4,9]    allocateEach[9]  1
    x[4,9]    findWorstP[1,4]  -7.5694567333215335e-02
    x[4,9]    findWorstP[2,4]  -2.2225678781908367e-02
    x[4,9]    findWorstP[3,4]  -2.3357664233576641e-02
    x[4,9]    findWorstP[4,1]  5.1949134875964142e-02
    x[4,9]    findWorstP[4,2]  5.1949134875964142e-02
    x[4,9]    findWorstP[4,3]  5.1949134875964142e-02
    x[4,10]   allocateEach[10]  1
    x[4,10]   findWorstP[1,4]  -1.1023122751135490e-01
    x[4,10]   findWorstP[2,4]  -1.5945109832184029e-01
    x[4,10]   findWorstP[3,4]  -1.6347156493141893e-02
    x[4,10]   findWorstP[4,1]  4.5048988951427969e-02
    x[4,10]   findWorstP[4,2]  4.5048988951427969e-02
    x[4,10]   findWorstP[4,3]  4.5048988951427969e-02
    x[4,11]   allocateEach[11]  1
    x[4,11]   findWorstP[1,4]  -1.2019996460803395e-01
    x[4,11]   findWorstP[2,4]  -1.0067230085895509e-01
    x[4,11]   findWorstP[3,4]  -3.7234298548167157e-02
    x[4,11]   findWorstP[4,1]  6.1079841567646433e-02
    x[4,11]   findWorstP[4,2]  6.1079841567646433e-02
    x[4,11]   findWorstP[4,3]  6.1079841567646433e-02
    MARKER    'MARKER'                 'INTEND'
RHS
    RHS1      allocateEach[1]  1
    RHS1      allocateEach[2]  1
    RHS1      allocateEach[3]  1
    RHS1      allocateEach[4]  1
    RHS1      allocateEach[5]  1
    RHS1      allocateEach[6]  1
    RHS1      allocateEach[7]  1
    RHS1      allocateEach[8]  1
    RHS1      allocateEach[9]  1
    RHS1      allocateEach[10]  1
    RHS1      allocateEach[11]  1
    RHS1      allocateAllCash  1
BOUNDS
 UP BND1      z         1
 MI BND1      cashProportion[1]
 UP BND1      cashProportion[1]  1
 MI BND1      cashProportion[2]
 UP BND1      cashProportion[2]  1
 MI BND1      cashProportion[3]
 UP BND1      cashProportion[3]  1
 MI BND1      cashProportion[4]
 UP BND1      cashProportion[4]  1
 BV BND1      x[1,1]  
 BV BND1      x[1,2]  
 BV BND1      x[1,3]  
 BV BND1      x[1,4]  
 BV BND1      x[1,5]  
 BV BND1      x[1,6]  
 BV BND1      x[1,7]  
 BV BND1      x[1,8]  
 BV BND1      x[1,9]  
 BV BND1      x[1,10] 
 BV BND1      x[1,11] 
 BV BND1      x[2,1]  
 BV BND1      x[2,2]  
 BV BND1      x[2,3]  
 BV BND1      x[2,4]  
 BV BND1      x[2,5]  
 BV BND1      x[2,6]  
 BV BND1      x[2,7]  
 BV BND1      x[2,8]  
 BV BND1      x[2,9]  
 BV BND1      x[2,10] 
 BV BND1      x[2,11] 
 BV BND1      x[3,1]  
 BV BND1      x[3,2]  
 BV BND1      x[3,3]  
 BV BND1      x[3,4]  
 BV BND1      x[3,5]  
 BV BND1      x[3,6]  
 BV BND1      x[3,7]  
 BV BND1      x[3,8]  
 BV BND1      x[3,9]  
 BV BND1      x[3,10] 
 BV BND1      x[3,11] 
 BV BND1      x[4,1]  
 BV BND1      x[4,2]  
 BV BND1      x[4,3]  
 BV BND1      x[4,4]  
 BV BND1      x[4,5]  
 BV BND1      x[4,6]  
 BV BND1      x[4,7]  
 BV BND1      x[4,8]  
 BV BND1      x[4,9]  
 BV BND1      x[4,10] 
 BV BND1      x[4,11] 
ENDATA
